 Run started: Thu, 05 May 2016 14:13:40 +0100

 Atomic calculation performed for O: 1s2 2s2 2p4

 Converged in 60 iterations to an ae energy of -2027.926 eV

   | Pseudopotential Report - Date of generation  5-05-2016   |
   | Element: O Ionic charge:  6.00 Level of theory: LDA      |
   |               Reference Electronic Structure             |
   |         Orbital         Occupation         Energy        |
   |            2s              2.000           -0.873        |
   |            2p              4.000           -0.338        |
   |                 Pseudopotential Definition               |
   |        Beta     l      e      Rc     scheme   norm       |
   |          1      0   -0.873   1.300     qc      0         |
   |          2      0    0.250   1.300     qc      0         |
   |          3      1   -0.338   1.300     qc      0         |
   |          4      1    0.250   1.300     qc      0         |
   |         loc     2    0.000   1.004     pn      0         |
   | Augmentation charge Rinner = 0.701                       |
   | Partial core correction Rc = 0.701                       |
   | "2|1.0|1.3|0.7|13|16|18|20:21(qc=7)"                     |
   |      Author: Chris J. Pickard, Cambridge University      |

 Atomic calculation performed for Mg: 1s2 2s2 2p6 3s2

[...]

   | Pseudopotential Report - Date of generation  5-05-2016   |
   | Element: Mg Ionic charge:  8.00 Level of theory: LDA     |
   |               Reference Electronic Structure             |
   |         Orbital         Occupation         Energy        |
   |            2p              6.000           -1.717        |
   |            3s              2.000           -0.176        |
   |                 Pseudopotential Definition               |
   |        Beta     l      e      Rc     scheme   norm       |
   |          1      0   -0.176   1.994     qc      1         |
   |          2      1   -1.717   1.994     qc      0         |
   |          3      1    0.000   1.994     qc      0         |
   |          4      1    0.250   1.994     qc      0         |
   |         loc     2    0.000   1.605     pn      0         |
   | Augmentation charge Rinner = 1.405                       |
   | Partial core correction Rc = 1.405                       |
   | "2|1.6|2|1.4|6|7|8|30NH:21U:31UU:32LGG(qc=4.5)"          |
   |      Author: Chris J. Pickard, Cambridge University      |

 Atomic calculation performed for Ca: 1s2 2s2 2p6 3s2 3p6 4s2

 Converged in 44 iterations to an ae energy of -18468.058 eV

   | Pseudopotential Report - Date of generation  5-05-2016   |
   | Element: Ca Ionic charge: 10.00 Level of theory: LDA     |
   |               Reference Electronic Structure             |
   |         Orbital         Occupation         Energy        |
   |            3s              2.000           -1.721        |
   |            3p              6.000           -1.028        |
   |            4s              2.000           -0.142        |
   |                 Pseudopotential Definition               |
   |        Beta     l      e      Rc     scheme   norm       |
   |          1      0   -1.721   2.005     qc      0         |
   |          2      0   -0.142   2.005     qc      0         |
   |          3      1   -1.028   2.005     qc      0         |
   |          4      1    0.250   2.005     qc      0         |
   |          5      2    0.000   2.005     qc      0         |
   |          6      2    1.000   2.005     qc      0         |
   |         loc     3    0.000   1.601     pn      0         |
   | Augmentation charge Rinner = 1.401                       |
   | Partial core correction Rc = 1.401                       |
   | "3|1.6|2.0|1.4|7|9|10|30U:40U:31:32U=0U=1.0"             |
   |      Author: Chris J. Pickard, Cambridge University      |

 Pseudo atomic calculation performed for O 2s2 2p4

 Converged in 30 iterations to a total energy of -432.7785 eV

 Pseudo atomic calculation performed for Mg 2p6 3s2

[...]

 Pseudo atomic calculation performed for Ca 3s2 3p6 4s2

[...]

 Calculation parallelised over 60 processes.
 Data is distributed by G-vector(10-way) and k-point(6-way)

 ************************************ Title ************************************
 MgO

 ***************************** General Parameters ******************************

 output verbosity                               : normal  (1)
 write checkpoint data to                       : cube_064.check
 type of calculation                            : geometry optimization
 stress calculation                             : on
 density difference calculation                 : off
 electron localisation func (ELF) calculation   : off
 Hirshfeld analysis                             : off
 unlimited duration calculation
 timing information                             : on
 write final potential to formatted file        : off
 write final density to formatted file          : off
 write BibTeX reference list                    : on

 output         length unit                     : A
 output           mass unit                     : amu
 output           time unit                     : ps
 output         charge unit                     : e
 output         energy unit                     : eV
 output          force unit                     : eV/A
 output       velocity unit                     : A/ps
 output       pressure unit                     : GPa
 output     inv_length unit                     : 1/A
 output      frequency unit                     : cm-1
 output force constant unit                     : eV/A**2
 output         volume unit                     : A**3
 output   IR intensity unit                     : (D/A)**2/amu
 output         dipole unit                     : D
 output         efield unit                     : eV/A/e
 output        entropy unit                     : J/mol/K

 wavefunctions paging                           : none
 random number generator seed                   : randomised (141341121)
 data distribution                              : optimal for this architecture
 optimization strategy                          : maximize speed(+++)

 *********************** Exchange-Correlation Parameters ***********************

 using functional                               : Local Density Approximation
 Divergence correction                          : off
 DFT+D: Semi-empirical dispersion correction    : off

 ************************* Pseudopotential Parameters **************************

 pseudopotential representation                 : reciprocal space
 <beta|phi> representation                      : reciprocal space

 **************************** Basis Set Parameters *****************************

 plane wave basis set cut-off                   :   490.0000   eV
 size of standard grid                          :     2.0000
 size of   fine   gmax                          :    22.6812   1/A
 largest prime factor in FFT                    :          5
 finite basis set correction                    : automatic
 number of sample energies                      :          3
           sample  spacing                      :     5.0000   eV

 **************************** Electronic Parameters ****************************

 number of  electrons                           :  208.0
 net charge of system                           :  0.000
 net spin   of system                           :  0.000
 number of  up  spins                           :  104.0
 number of down spins                           :  104.0
 treating system as non-spin-polarized
 number of bands                                :        125

 ********************* Electronic Minimization Parameters **********************

 Method: Treating system as metallic with density mixing treatment of electrons,
         and number of  SD  steps               :          1
         and number of  CG  steps               :          4

 total energy / atom convergence tol.           : 0.1000E-06   eV
 eigen-energy convergence tolerance             : 0.2596E-07   eV
 max force / atom convergence tol.              : ignored
 convergence tolerance window                   :          3   cycles
 max. number of SCF cycles                      :         60
 number of fixed-spin iterations                :         10
 smearing scheme                                : Gaussian
 smearing width                                 : 0.2000       eV
 Fermi energy convergence tolerance             : 0.2721E-13   eV
 periodic dipole correction                     : NONE

 ************************** Density Mixing Parameters **************************

 density-mixing scheme                          : Pulay
 max. length of mixing history                  :         30
 charge density mixing amplitude                : 0.8000
 cut-off energy for mixing                      :  490.0       eV
 charge density mixing g-vector                 :  1.500       1/A

 *********************** Population Analysis Parameters ************************

 Population analysis with cutoff                :  3.000       A

 ********************** Geometry Optimization Parameters ***********************

 optimization method                            : BFGS
 variable cell method                           : fixed basis quality
 max. number of steps                           :         30
 estimated bulk modulus                         :  500.0       GPa
 estimated <frequency>                          :  1668.       cm-1
 geom line minimiser                            : on
 with line minimiser tolerance                  :     0.4000
 total energy convergence tolerance             : 0.2000E-04   eV/atom
        max ionic |force| tolerance             : 0.5000E-01   eV/A
 max ionic |displacement| tolerance             : 0.1000E-02   A
   max |stress component| tolerance             : 0.1000       GPa
 convergence tolerance window                   :          2   steps
 backup results every                           :          5   steps

                                      Unit Cell
        Real Lattice(A)                      Reciprocal Lattice(1/A)
   6.3000000   0.0000000   0.0000000        0.9973310   0.0000000   0.0000000
   0.0000000   6.3000000   0.0000000        0.0000000   0.9973310   0.0000000
   0.0000000   0.0000000   6.3000000        0.0000000   0.0000000   0.9973310

                       Lattice parameters(A)       Cell Angles
                    a =    6.300000          alpha =   90.000000
                    b =    6.300000          beta  =   90.000000
                    c =    6.300000          gamma =   90.000000

                       Current cell volume =  250.047000       A**3

                                     Cell Contents
                         Total number of ions in cell =   27
                      Total number of species in cell =    3
                        Max number of any one species =   13

            x  Element    Atom        Fractional coordinates of atoms  x
            x            Number           u          v          w      x
            x  O            1         0.000000   0.000000   0.333333   x
[...]
 *                   x                    y                    z              *
 * O         1      0.94503              0.71916              0.00000         *
 * O         2      0.94503              0.00000              0.71916         *
 * O         3      0.94503              0.00000             -0.71916         *
 * O         4      0.94503             -0.71916              0.00000         *
 * O         5      0.25375              0.76398              0.76398         *
 * O         6      0.25375              0.76398             -0.76398         *
 * O         7      0.10249              0.00000              0.00000         *
 * O         8      0.25375             -0.76398              0.76398         *
 * O         9      0.25375             -0.76398             -0.76398         *
 * O        10     -0.60511              1.19563              0.00000         *
 * O        11     -0.60511              0.00000              1.19563         *
 * O        12     -0.60511              0.00000             -1.19563         *
 * O        13     -0.60511             -1.19563              0.00000         *
 * Mg        1     -1.00091              1.14546              1.14546         *
 * Mg        2     -1.00091              1.14546             -1.14546         *
 * Mg        3     -0.96744              0.00000              0.00000         *
 * Mg        4     -1.00091             -1.14546              1.14546         *
 * Mg        5     -1.00091             -1.14546             -1.14546         *
 * Ca        1      0.59391              0.61406              0.61406         *
 * Ca        2      0.59391              0.61406             -0.61406         *
 * Ca        3      0.02050              0.00000              0.00000         *
 * Ca        4      0.59391             -0.61406              0.61406         *
 * Ca        5      0.59391             -0.61406             -0.61406         *
 * Ca        6      0.02444              0.37156              0.00000         *
 * Ca        7      0.02444             -0.00000              0.37156         *
 * Ca        8      0.02444              0.00000             -0.37156         *
 * Ca        9      0.02444             -0.37156             -0.00000         *

 ***************** Stress Tensor *****************
 *          Cartesian components (GPa)           *
 *             x             y             z     *
 *  x     -2.577510      0.000000      0.000000  *
 *  y      0.000000     -1.264258      0.000000  *
 *  z      0.000000      0.000000     -1.264258  *
 *  Pressure:    1.7020                          *

 *********** Constrained Stress Tensor ***********
 *          Cartesian components (GPa)           *
 *             x             y             z     *
 *  x     -1.696794      0.000000      0.000000  *
 *  y      0.000000     -1.696794      0.000000  *
 *  z      0.000000      0.000000     -1.696794  *
 *  Pressure:    1.6968                          *

 +------------+-------------+-------------+-----------------+ <-- min BFGS
 |    Step    |   lambda    |   F.delta   |    enthalpy     | <-- min BFGS
 +------------+-------------+-------------+-----------------+ <-- min BFGS
 |  previous  |    0.000000 |    0.008277 |   -19914.905910 | <-- min BFGS
 | trial step |    1.000000 |    0.008029 |   -19915.125302 | <-- min BFGS
 +------------+-------------+-------------+-----------------+ <-- min BFGS

 BFGS: finished iteration    30 with enthalpy= -1.99151253E+004 eV

 +-----------+-----------------+-----------------+------------+-----+ <-- BFGS
 | Parameter |      value      |    tolerance    |    units   | OK? | <-- BFGS
 +-----------+-----------------+-----------------+------------+-----+ <-- BFGS
 |  dE/ion   |   8.125646E-003 |   2.000000E-005 |         eV | No  | <-- BFGS
 |  |F|max   |   1.904199E+000 |   5.000000E-002 |       eV/A | No  | <-- BFGS
 |  |dR|max  |   1.010240E-002 |   1.000000E-003 |          A | No  | <-- BFGS
 |   Smax    |   1.701253E+000 |   1.000000E-001 |        GPa | No  | <-- BFGS
 +-----------+-----------------+-----------------+------------+-----+ <-- BFGS

 BFGS : WARNING - Geometry optimization failed to converge after         30 steps

 BFGS : Final Configuration:

                                      Unit Cell
        Real Lattice(A)              Reciprocal Lattice(1/A)
   7.2941834   0.0000000   0.0000000        0.8613967   0.0000000   0.0000000
   0.0000000   7.2941834   0.0000000        0.0000000   0.8613967   0.0000000
   0.0000000   0.0000000   7.2941834        0.0000000   0.0000000   0.8613967

                       Lattice parameters(A)       Cell Angles
                    a =    7.294183          alpha =   90.000000
                    b =    7.294183          beta  =   90.000000
                    c =    7.294183          gamma =   90.000000

                Current cell volume =  388.087836 A**3

                                     Cell Contents

            x  Element    Atom        Fractional coordinates of atoms  x
            x            Number           u          v          w      x
            x  O            1         0.031744   0.026722   0.333333   x
            x  O            2         0.031744   0.333333   0.026722   x
            x  O            3         0.031744   0.333333   0.639944   x
            x  O            4         0.031744   0.639944   0.333333   x
            x  O            5         0.339980   0.026557   0.026557   x
            x  O            6         0.339980   0.026557   0.640109   x
            x  O            7         0.338753   0.333333   0.333333   x
            x  O            8         0.339980   0.640109   0.026557   x
            x  O            9         0.339980   0.640109   0.640109   x
            x  O           10         0.647542   0.038693   0.333333   x
            x  O           11         0.647542   0.333333   0.038693   x
            x  O           12         0.647542   0.333333   0.627974   x
            x  O           13         0.647542   0.627974   0.333333   x
            x  Mg           1         0.614191   0.046167   0.046167   x
            x  Mg           2         0.614191   0.046167   0.620500   x
            x  Mg           3         0.625046   0.333333   0.333333   x
            x  Mg           4         0.614191   0.620500   0.046167   x
            x  Mg           5         0.614191   0.620500   0.620500   x
            x  Ca           1         0.034512   0.040909   0.040909   x
            x  Ca           2         0.034512   0.040909   0.625757   x
            x  Ca           3         0.010287   0.333333   0.333333   x
            x  Ca           4         0.034512   0.625757   0.040909   x
            x  Ca           5         0.034512   0.625757   0.625757   x
            x  Ca           6         0.338509   0.022620   0.333333   x
            x  Ca           7         0.338509   0.333333   0.022620   x
            x  Ca           8         0.338509   0.333333   0.644047   x
            x  Ca           9         0.338509   0.644047   0.333333   x

 BFGS : Final Enthalpy     = -1.99151253E+004 eV
 BFGS : Final <frequency>  unchanged from initial value
 BFGS : Final bulk modulus unchanged from initial value

  *** There were at least     2 warnings during this run ***
  *** => please check the whole of this file carefully!  ***

 ***************************** Symmetrised Forces *****************************
 *                        Cartesian components (eV/A)                         *
 *                   x                    y                    z              *
 * O         1      0.94503              0.71916              0.00000         *
 * O         2      0.94503              0.00000              0.71916         *
 * O         3      0.94503              0.00000             -0.71916         *
 * O         4      0.94503             -0.71916              0.00000         *
 * O         5      0.25375              0.76398              0.76398         *
 * O         6      0.25375              0.76398             -0.76398         *
 * O         7      0.10249              0.00000              0.00000         *
 * O         8      0.25375             -0.76398              0.76398         *
 * O         9      0.25375             -0.76398             -0.76398         *
 * O        10     -0.60511              1.19563              0.00000         *
 * O        11     -0.60511              0.00000              1.19563         *
 * O        12     -0.60511              0.00000             -1.19563         *
 * O        13     -0.60511             -1.19563              0.00000         *
 * Mg        1     -1.00091              1.14546              1.14546         *
 * Mg        2     -1.00091              1.14546             -1.14546         *
 * Mg        3     -0.96744              0.00000              0.00000         *
 * Mg        4     -1.00091             -1.14546              1.14546         *
 * Mg        5     -1.00091             -1.14546             -1.14546         *
 * Ca        1      0.59391              0.61406              0.61406         *
 * Ca        2      0.59391              0.61406             -0.61406         *
 * Ca        3      0.02050              0.00000              0.00000         *
 * Ca        4      0.59391             -0.61406              0.61406         *
 * Ca        5      0.59391             -0.61406             -0.61406         *
 * Ca        6      0.02444              0.37156              0.00000         *
 * Ca        7      0.02444             -0.00000              0.37156         *
 * Ca        8      0.02444              0.00000             -0.37156         *
 * Ca        9      0.02444             -0.37156             -0.00000         *

 *********** Symmetrised Stress Tensor ***********
 *          Cartesian components (GPa)           *
 *             x             y             z     *
 *  x     -1.701253      0.000000      0.000000  *
 *  y      0.000000     -1.701253      0.000000  *
 *  z      0.000000      0.000000     -1.701253  *
 *  Pressure:    1.7013                          *

 Pseudo atomic calculation performed for O 2s2 2p4

[...]

 Pseudo atomic calculation performed for Mg 2p6 3s2

[...]

 Pseudo atomic calculation performed for Ca 3s2 3p6 4s2

 Converged in 24 iterations to a total energy of -1000.4646 eV

Charge spilling parameter for spin component 1 = 0.30%

     Atomic Populations (Mulliken)
Species   Ion     s      p      d      f     Total  Charge (e)
  O        1     1.87   4.98   0.00   0.00   6.85    -0.85
  O        2     1.87   4.98   0.00   0.00   6.85    -0.85
  O        3     1.87   4.98   0.00   0.00   6.85    -0.85
  O        4     1.87   4.98   0.00   0.00   6.85    -0.85
  O        5     1.87   5.03   0.00   0.00   6.90    -0.90
  O        6     1.87   5.03   0.00   0.00   6.90    -0.90
  O        7     1.85   5.04   0.00   0.00   6.90    -0.90
  O        8     1.87   5.03   0.00   0.00   6.90    -0.90
  O        9     1.87   5.03   0.00   0.00   6.90    -0.90
  O       10     1.87   5.05   0.00   0.00   6.92    -0.92
  O       11     1.87   5.05   0.00   0.00   6.92    -0.92
  O       12     1.87   5.05   0.00   0.00   6.92    -0.92
  O       13     1.87   5.05   0.00   0.00   6.92    -0.92
  Mg       1     0.46   6.91   0.00   0.00   7.37     0.63
  Mg       2     0.46   6.91   0.00   0.00   7.37     0.63
  Mg       3     0.47   6.75   0.00   0.00   7.22     0.78
  Mg       4     0.46   6.91   0.00   0.00   7.37     0.63
  Mg       5     0.46   6.91   0.00   0.00   7.37     0.63
  Ca       1     2.24   5.97   0.90   0.00   9.11     0.89
  Ca       2     2.24   5.97   0.90   0.00   9.11     0.89
  Ca       3     2.15   5.98   0.82   0.00   8.96     1.04
  Ca       4     2.24   5.97   0.90   0.00   9.11     0.89
  Ca       5     2.24   5.97   0.90   0.00   9.11     0.89
  Ca       6     2.22   5.98   0.88   0.00   9.08     0.92
  Ca       7     2.22   5.98   0.88   0.00   9.08     0.92
  Ca       8     2.22   5.98   0.88   0.00   9.08     0.92
  Ca       9     2.22   5.98   0.88   0.00   9.08     0.92

            Bond              Population      Length (A)
         O 8  -- Mg 4              0.47        2.01035
         O 6  -- Mg 2              0.47        2.01035
         O 5  -- Mg 1              0.47        2.01035
         O 9  -- Mg 5              0.47        2.01035
         O 7  -- Mg 3              0.24        2.08827
         O 11 -- Mg 4              0.41        2.10943
         O 13 -- Mg 5              0.41        2.10943
         O 12 -- Mg 5              0.41        2.10943
         O 10 -- Mg 2              0.41        2.10943
         O 11 -- Mg 1              0.41        2.10943
         O 13 -- Mg 4              0.41        2.10943
         O 12 -- Mg 2              0.41        2.10943
         O 10 -- Mg 1              0.41        2.10943
         O 4  -- Ca 5              0.28        2.13560
         O 3  -- Ca 5              0.28        2.13560
         O 2  -- Ca 4              0.28        2.13560
         O 1  -- Ca 2              0.28        2.13560
         O 4  -- Ca 4              0.28        2.13560
         O 3  -- Ca 2              0.28        2.13560
         O 2  -- Ca 1              0.28        2.13560
         O 1  -- Ca 1              0.28        2.13560
         O 13 -- Mg 3              0.27        2.15542
         O 12 -- Mg 3              0.27        2.15542
         O 11 -- Mg 3              0.27        2.15542
         O 10 -- Mg 3              0.27        2.15542
         O 9  -- Ca 5              0.29        2.23305
         O 8  -- Ca 4              0.29        2.23305
         O 6  -- Ca 2              0.29        2.23305
         O 5  -- Ca 1              0.29        2.23305
         O 4  -- Ca 9              0.18        2.23780
         O 3  -- Ca 8              0.18        2.23780
         O 2  -- Ca 7              0.18        2.23780
         O 1  -- Ca 6              0.18        2.23780
         O 9  -- Ca 8              0.15        2.23789
         O 8  -- Ca 7              0.15        2.23789
         O 6  -- Ca 8              0.15        2.23789
         O 5  -- Ca 7              0.15        2.23789
         O 9  -- Ca 9              0.15        2.23789
         O 8  -- Ca 9              0.15        2.23789
         O 6  -- Ca 6              0.15        2.23789
         O 5  -- Ca 6              0.15        2.23789
         O 4  -- Ca 3              0.15        2.24195
         O 3  -- Ca 3              0.15        2.24195
         O 2  -- Ca 3              0.15        2.24195
         O 1  -- Ca 3              0.15        2.24195
         O 13 -- Ca 9              0.09        2.25719
         O 12 -- Ca 8              0.09        2.25719
         O 11 -- Ca 7              0.09        2.25719
         O 10 -- Ca 6              0.09        2.25719
         O 7  -- Ca 9              0.16        2.26640
         O 7  -- Ca 8              0.16        2.26640
         O 7  -- Ca 7              0.16        2.26640
         O 7  -- Ca 6              0.16        2.26640
         O 7  -- Ca 3              0.18        2.39589
         Ca 7 -- Ca 8             -0.12        2.76139
         Ca 6 -- Ca 9             -0.12        2.76139
         O 4  -- O 13             -0.05        2.80380
         O 3  -- O 12             -0.05        2.80380
         O 2  -- O 11             -0.05        2.80380
         O 1  -- O 10             -0.05        2.80380
[...]
         O 1  -- O 4              -0.05        2.82123
         Mg 5 -- Ca 9             -0.14        2.90872
         Mg 5 -- Ca 8             -0.14        2.90872
         Mg 4 -- Ca 7             -0.14        2.90872
         Mg 2 -- Ca 6             -0.14        2.90872
         Mg 4 -- Ca 9             -0.14        2.90872
         Mg 2 -- Ca 8             -0.14        2.90872
         Mg 1 -- Ca 7             -0.14        2.90872
         Mg 1 -- Ca 6             -0.14        2.90872
         Mg 3 -- Mg 5             -0.37        2.96333
         Mg 3 -- Mg 4             -0.37        2.96333
         Mg 2 -- Mg 3             -0.37        2.96333
         Mg 1 -- Mg 3             -0.37        2.96333
         O 11 -- O 12             -0.03        2.99586
         O 10 -- O 13             -0.03        2.99586

Writing analysis data to cube_064.castep_bin

Writing model to cube_064.check

 A BibTeX formatted list of references used in this run has been written to
 cube_064.bib

Initialisation time =     15.95 s
Calculation time    =   5817.07 s
Finalisation time   =      2.27 s
Total time          =   5835.29 s

Overall parallel efficiency rating: Terrible (8%)

Data was distributed by:-
G-vector (10-way); efficiency rating: Poor (38%)
k-point (6-way); efficiency rating: Terrible (10%)