 Run started: Fri, 06 May 2016 16:03:12 +0100
 Warning: parameters_read - missing parameters file, using defaults

 Atomic calculation performed for O: 1s2 2s2 2p4

 Converged in 60 iterations to an ae energy of -2027.926 eV

   | Pseudopotential Report - Date of generation  6-05-2016   |
   | Element: O Ionic charge:  6.00 Level of theory: LDA      |
   | Atomic Solver: Koelling-Harmon                           |
   |               Reference Electronic Structure             |
   |         Orbital         Occupation         Energy        |
   |            2s              2.000           -0.873        |
   |            2p              4.000           -0.338        |
   |                 Pseudopotential Definition               |
   |        Beta     l      e      Rc     scheme   norm       |
   |          1      0   -0.873   1.100     qc      0         |
   |          2      0    0.250   1.100     qc      0         |
   |          3      1   -0.338   1.100     qc      0         |
   |          4      1    0.250   1.100     qc      0         |
   |         loc     2    0.000   1.100     pn      0         |
   | Augmentation charge Rinner = 0.769                       |
   | Partial core correction Rc = 0.769                       |
   | "2|1.1|15|18|20|20:21(qc=7)"                             |
   |      Author: Chris J. Pickard, Cambridge University      |

 Atomic calculation performed for Mg: 1s2 2s2 2p6 3s2

[...]

   | Pseudopotential Report - Date of generation  6-05-2016   |
   | Element: Mg Ionic charge: 10.00 Level of theory: LDA     |
   | Atomic Solver: Koelling-Harmon                           |
   |               Reference Electronic Structure             |
   |         Orbital         Occupation         Energy        |
   |            2s              2.000           -2.914        |
   |            2p              6.000           -1.717        |
   |            3s              2.000           -0.176        |
   |                 Pseudopotential Definition               |
   |        Beta     l      e      Rc     scheme   norm       |
   |          1      0   -2.914   1.804     qc      0         |
   |          2      0   -0.176   1.804     qc      0         |
   |          3      0    0.250   1.804     qc      0         |
   |          4      1   -1.717   1.804     qc      0         |
   |          5      1    0.250   1.804     qc      0         |
   |          6      2    0.000   1.804     qc      0         |
   |          7      2    0.250   1.804     qc      0         |
   |         loc     3    0.000   1.804     pn      0         |
   | Augmentation charge Rinner = 1.261                       |
   | Partial core correction Rc = 1.261                       |
   | "3|1.8|7|8|9|20U:30:21:32"                               |
   |      Author: Chris J. Pickard, Cambridge University      |

 Atomic calculation performed for Ca: 1s2 2s2 2p6 3s2 3p6 4s2

 Converged in 44 iterations to an ae energy of -18468.059 eV

   | Pseudopotential Report - Date of generation  6-05-2016   |
   | Element: Ca Ionic charge: 10.00 Level of theory: LDA     |
   | Atomic Solver: Koelling-Harmon                           |
   |               Reference Electronic Structure             |
   |         Orbital         Occupation         Energy        |
   |            3s              2.000           -1.721        |
   |            3p              6.000           -1.028        |
   |            4s              2.000           -0.142        |
   |                 Pseudopotential Definition               |
   |        Beta     l      e      Rc     scheme   norm       |
   |          1      0   -1.721   2.005     qc      0         |
   |          2      0   -0.142   2.005     qc      0         |
   |          3      0    0.250   2.005     qc      0         |
   |          4      1   -1.028   2.005     qc      0         |
   |          5      1    0.250   2.005     qc      0         |
   |          6      2    0.000   2.005     qc      0         |
   |          7      2    0.250   2.005     qc      0         |
   |         loc     3    0.000   2.005     pn      0         |
   | Augmentation charge Rinner = 1.401                       |
   | Partial core correction Rc = 1.401                       |
   | "3|2.0|7|8|9|30U:40:31:32"                               |
   |      Author: Chris J. Pickard, Cambridge University      |

 Pseudo atomic calculation performed for O 2s2 2p4

 Converged in 24 iterations to a total energy of -431.6155 eV

 Pseudo atomic calculation performed for Mg 2s2 2p6 3s2

[...]

 Calculation parallelised over 3 processes.
 Data is distributed by k-point(3-way)
 Warning: parameters_output - missing parameters file, using defaults

 ************************************ Title ************************************

 ***************************** General Parameters ******************************

 output verbosity                               : normal  (1)
 write checkpoint data to                       : cube_078.check
 type of calculation                            : single point energy
 stress calculation                             : off
 density difference calculation                 : off
 electron localisation func (ELF) calculation   : off
 Hirshfeld analysis                             : off
 unlimited duration calculation
 timing information                             : on
 write final potential to formatted file        : off
 write final density to formatted file          : off
 write BibTeX reference list                    : on
 write OTFG pseudopotential files               : on
 checkpoint writing                             : both castep_bin and check files
 random number generator seed                   : randomised (160312801)

 *********************** Exchange-Correlation Parameters ***********************

 using functional                               : Local Density Approximation
 DFT+D: Semi-empirical dispersion correction    : off

 ************************* Pseudopotential Parameters **************************

 pseudopotential representation                 : reciprocal space
 <beta|phi> representation                      : reciprocal space
 spin-orbit coupling                            : off

 **************************** Basis Set Parameters *****************************

 basis set accuracy                             : FINE
 finite basis set correction                    : none

 **************************** Electronic Parameters ****************************

 number of  electrons                           :  218.0
 net charge of system                           :  0.000
 treating system as non-spin-polarized
 number of bands                                :        131

 ********************* Electronic Minimization Parameters **********************

 Method: Treating system as metallic with density mixing treatment of electrons,
         and number of  SD  steps               :          1
         and number of  CG  steps               :          4

 total energy / atom convergence tol.           : 0.1000E-04   eV
 eigen-energy convergence tolerance             : 0.1000E-05   eV
 max force / atom convergence tol.              : ignored
 periodic dipole correction                     : NONE

 ************************** Density Mixing Parameters **************************

 density-mixing scheme                          : Broyden
 max. length of mixing history                  :         20

 *********************** Population Analysis Parameters ************************

 Population analysis with cutoff                :  3.000       A

                                      Unit Cell
        Real Lattice(A)                      Reciprocal Lattice(1/A)
   6.3000000   0.0000000   0.0000000        0.9973310   0.0000000   0.0000000
   0.0000000   6.3000000   0.0000000        0.0000000   0.9973310   0.0000000
   0.0000000   0.0000000   6.3000000        0.0000000   0.0000000   0.9973310

                       Lattice parameters(A)       Cell Angles
                    a =    6.300000          alpha =   90.000000
                    b =    6.300000          beta  =   90.000000
                    c =    6.300000          gamma =   90.000000

                       Current cell volume =  250.047000       A**3

                                     Cell Contents
                         Total number of ions in cell =   27
                      Total number of species in cell =    3
                        Max number of any one species =   13

            x  Element    Atom        Fractional coordinates of atoms  x
            x            Number           u          v          w      x
            x  O            1         0.000000   0.000000   0.333333   x
            x  O            2         0.000000   0.333333   0.000000   x
            x  O            3         0.000000   0.333333   0.666667   x
            x  O            4         0.000000   0.666667   0.333333   x
            x  O            5         0.333333   0.000000   0.000000   x
            x  O            6         0.333333   0.000000   0.666667   x
            x  O            7         0.333333   0.333333   0.333333   x
            x  O            8         0.333333   0.666667   0.000000   x
            x  O            9         0.333333   0.666667   0.666667   x
            x  O           10         0.666667   0.000000   0.333333   x
            x  O           11         0.666667   0.333333   0.000000   x
            x  O           12         0.666667   0.333333   0.666667   x
            x  O           13         0.666667   0.666667   0.333333   x
            x  Mg           1         0.666667   0.333333   0.333333   x
            x  Mg           2         0.666667   0.666667   0.000000   x
            x  Mg           3         0.666667   0.666667   0.666667   x
            x  Ca           1         0.000000   0.000000   0.000000   x
            x  Ca           2         0.000000   0.000000   0.666667   x
            x  Ca           3         0.000000   0.333333   0.333333   x
            x  Ca           4         0.000000   0.666667   0.000000   x
            x  Ca           5         0.000000   0.666667   0.666667   x
            x  Ca           6         0.333333   0.000000   0.333333   x
            x  Ca           7         0.333333   0.333333   0.000000   x
            x  Ca           8         0.333333   0.333333   0.666667   x
            x  Ca           9         0.333333   0.666667   0.333333   x
            x  Ca          10         0.666667   0.000000   0.000000   x
            x  Ca          11         0.666667   0.000000   0.666667   x

                         No user defined ionic velocities

                                   Details of Species

                               Mass of species in AMU
                                    O   15.9994000
                                    Mg   24.3050000
                                    Ca   40.0780000

                          Electric Quadrupole Moment (Barn)
                                    O   -0.0255800 Isotope 17
                                    Mg    0.1994000 Isotope 25
                                    Ca   -0.0408000 Isotope 43

                          Files used for pseudopotentials:
                                    O 2|1.1|15|18|20|20:21(qc=7)
                                    Mg 3|1.8|7|8|9|20U:30:21:32
                                    Ca 3|2.0|7|8|9|30U:40:31:32

                              k-Points For BZ Sampling
                       MP grid size for SCF calculation is  3  3  3
                            with an offset of   0.000  0.000  0.000
                       Number of kpoints used =            10

                               Symmetry and Constraints

                      Maximum deviation from symmetry =  0.00000         ANG

                      Number of symmetry operations   =           2
                      Number of ionic constraints     =           3
                      Point group of crystal =     3: Cs, m, m
                      Space group of crystal =     6: Pm, P -2y

             Set iprint > 1 for details on symmetry rotations/translations

                         Centre of mass is constrained
             Set iprint > 1 for details of linear ionic constraints

                         Number of cell constraints= 5
                         Cell constraints are:  1 1 1 0 0 0

                         External pressure/stress (GPa)
                          0.00000   0.00000   0.00000
                                    0.00000   0.00000
                                              0.00000

Final energy, E             =  -21798.30909652     eV
Final free energy (E-TS)    =  -21798.54800759     eV
(energies not corrected for finite basis set)

NB est. 0K energy (E-0.5TS)      =  -21798.42855205     eV

Writing analysis data to cube_078.castep_bin

Writing model to cube_078.check

 ***************** Symmetrised Forces *****************
 *            Cartesian components (eV/A)             *
 *                   x            y            z      *
 * O         1      2.06309      1.97728      0.00000 *
 * O         2      2.10751      0.18859      2.00953 *
 * O         3      2.10751      0.18859     -2.00953 *
 * O         4      2.22292     -1.94552      0.00000 *
 * O         5      0.14849      2.00709      1.98369 *
 * O         6      0.14849      2.00709     -1.98369 *
 * O         7      0.88935      0.02912      0.00000 *
 * O         8      1.15404     -1.71848      1.93170 *
 * O         9      1.15404     -1.71848     -1.93170 *
 * O        10     -1.62133      3.99685      0.00000 *
 * O        11     -1.40868      1.25990      3.92945 *
 * O        12     -1.40868      1.25990     -3.92945 *
 * O        13     -1.19406     -3.57720      0.00000 *
 * Mg        1     -4.59402      0.08391      0.00000 *
 * Mg        2     -6.25718     -6.50177      6.48869 *
 * Mg        3     -6.25718     -6.50177     -6.48869 *
 * Ca        1      5.46593      5.48293      4.99920 *
 * Ca        2      5.46593      5.48293     -4.99920 *
 * Ca        3      1.22634     -0.10247      0.00000 *
 * Ca        4      4.82951     -6.22969      6.24607 *
 * Ca        5      4.82951     -6.22969     -6.24607 *
 * Ca        6      0.17222      4.58527      0.00000 *
 * Ca        7      0.34486      0.06128      4.53845 *
 * Ca        8      0.34486      0.06128     -4.53845 *
 * Ca        9      0.46868     -4.54471      0.00000 *
 * Ca       10     -6.20108      5.19889      6.61369 *
 * Ca       11     -6.20108      5.19889     -6.61369 *

 Pseudo atomic calculation performed for O 2s2 2p4

[...]

 Pseudo atomic calculation performed for Ca 3s2 3p6 4s2

 Converged in 19 iterations to a total energy of -1001.6194 eV

Charge spilling parameter for spin component 1 = 0.25%

     Atomic Populations (Mulliken)
Species   Ion     s      p      d      f     Total  Charge (e)
  O        1     1.86   4.79   0.00   0.00   6.66    -0.66
  O        2     1.86   4.79   0.00   0.00   6.65    -0.65
  O        3     1.86   4.79   0.00   0.00   6.65    -0.65
  O        4     1.86   4.80   0.00   0.00   6.66    -0.66
  O        5     1.86   4.79   0.00   0.00   6.66    -0.66
  O        6     1.86   4.79   0.00   0.00   6.66    -0.66
  O        7     1.82   4.97   0.00   0.00   6.79    -0.79
  O        8     1.86   4.82   0.00   0.00   6.68    -0.68
  O        9     1.86   4.82   0.00   0.00   6.68    -0.68
  O       10     1.87   4.84   0.00   0.00   6.70    -0.70
  O       11     1.87   4.85   0.00   0.00   6.72    -0.72
  O       12     1.87   4.85   0.00   0.00   6.72    -0.72
  O       13     1.86   4.89   0.00   0.00   6.75    -0.75
  Mg       1     2.49   6.82   0.00   0.00   9.30     0.70
  Mg       2     2.56   7.00   0.00   0.00   9.55     0.45
  Mg       3     2.56   7.00   0.00   0.00   9.55     0.45
  Ca       1     2.17   5.87   1.51   0.00   9.55     0.45
  Ca       2     2.17   5.87   1.51   0.00   9.55     0.45
  Ca       3     2.08   5.94   1.12   0.00   9.14     0.86
  Ca       4     2.01   5.88   1.52   0.00   9.41     0.59
  Ca       5     2.01   5.88   1.52   0.00   9.41     0.59
  Ca       6     2.16   5.94   1.09   0.00   9.20     0.80
  Ca       7     2.16   5.94   1.08   0.00   9.18     0.82
  Ca       8     2.16   5.94   1.08   0.00   9.18     0.82
  Ca       9     2.18   5.94   1.08   0.00   9.20     0.80
  Ca      10     2.01   5.88   1.51   0.00   9.40     0.60
  Ca      11     2.01   5.88   1.51   0.00   9.40     0.60

            Bond              Population      Length (A)
         O 13 -- Ca 9              0.16        2.10000
         O 13 -- Mg 3              0.59        2.10000
         O 13 -- Mg 2              0.59        2.10000
         O 13 -- Mg 1              0.29        2.10000
         O 12 -- Ca 11             0.50        2.10000
         O 12 -- Ca 8              0.16        2.10000
         O 12 -- Mg 3              0.51        2.10000
         O 12 -- Mg 1              0.31        2.10000
         O 11 -- Ca 10             0.50        2.10000
         O 11 -- Ca 7              0.16        2.10000
         O 11 -- Mg 2              0.51        2.10000
         O 11 -- Mg 1              0.31        2.10000
         O 10 -- Ca 11             0.34        2.10000
         O 10 -- Ca 10             0.34        2.10000
         O 10 -- Ca 6              0.16        2.10000
         O 10 -- Mg 1              0.33        2.10000
         O 9  -- Ca 9              0.14        2.10000
         O 9  -- Ca 8              0.13        2.10000
         O 9  -- Ca 5              0.45        2.10000
         O 9  -- Mg 3              0.55        2.10000
         O 8  -- Ca 9              0.14        2.10000
         O 8  -- Ca 7              0.13        2.10000
         O 8  -- Ca 4              0.45        2.10000
         O 8  -- Mg 2              0.55        2.10000
         O 7  -- Ca 9              0.11        2.10000
         O 7  -- Ca 8              0.12        2.10000
         O 7  -- Ca 7              0.12        2.10000
         O 7  -- Ca 6              0.12        2.10000
         O 7  -- Ca 3              0.24        2.10000
         O 7  -- Mg 1              0.16        2.10000
         O 6  -- Ca 11             0.33        2.10000
         O 6  -- Ca 8              0.15        2.10000
         O 6  -- Ca 6              0.14        2.10000
         O 6  -- Ca 2              0.29        2.10000
         O 5  -- Ca 10             0.33        2.10000
         O 5  -- Ca 7              0.15        2.10000
         O 5  -- Ca 6              0.14        2.10000
         O 5  -- Ca 1              0.29        2.10000
         O 4  -- Ca 9              0.16        2.10000
         O 4  -- Ca 5              0.33        2.10000
         O 4  -- Ca 4              0.33        2.10000
         O 4  -- Ca 3              0.15        2.10000
         O 3  -- Ca 8              0.16        2.10000
         O 3  -- Ca 5              0.32        2.10000
         O 3  -- Ca 3              0.16        2.10000
         O 3  -- Ca 2              0.28        2.10000
         O 2  -- Ca 7              0.16        2.10000
         O 2  -- Ca 4              0.32        2.10000
         O 2  -- Ca 3              0.16        2.10000
         O 2  -- Ca 1              0.28        2.10000
         O 1  -- Ca 6              0.16        2.10000
         O 1  -- Ca 3              0.17        2.10000
         O 1  -- Ca 2              0.29        2.10000
         O 1  -- Ca 1              0.29        2.10000
        Ca 10 -- Ca 11            -1.32        2.10000
        Ca 7  -- Ca 8             -0.35        2.10000
        Ca 6  -- Ca 9             -0.40        2.10000
        Ca 4  -- Ca 5             -0.74        2.10000
        Ca 2  -- Ca 11            -0.70        2.10000
        Ca 2  -- Ca 5             -0.78        2.10000
[...]
         O 3  -- O 11             -0.02        2.96985
         O 2  -- Ca 10            -0.01        2.96985
         O 2  -- Ca 8             -0.03        2.96985
         O 2  -- Ca 5             -0.03        2.96985
         O 2  -- Ca 2             -0.03        2.96985
         O 2  -- Mg 2             -0.04        2.96985
         O 2  -- Mg 1             -0.06        2.96985
         O 2  -- O 12             -0.02        2.96985
         O 1  -- Ca 11            -0.03        2.96985
         O 1  -- Ca 10            -0.03        2.96985
         O 1  -- Ca 9             -0.03        2.96985
         O 1  -- Ca 5             -0.03        2.96985
         O 1  -- Ca 4             -0.03        2.96985
         O 1  -- Mg 1             -0.05        2.96985
         O 1  -- O 13             -0.03        2.96985

Writing analysis data to cube_078.castep_bin

Writing model to cube_078.check

 A BibTeX formatted list of references used in this run has been written to
 cube_078.bib

Initialisation time =     12.37 s
Calculation time    =    616.26 s
Finalisation time   =     13.79 s
Total time          =    642.42 s

Overall parallel efficiency rating: Excellent (99%)

Data was distributed by:-
k-point (3-way); efficiency rating: Excellent (99%)