 Run started: Fri, 06 May 2016 14:36:08 +0100

 Atomic calculation performed for O: 1s2 2s2 2p4

 Converged in 60 iterations to an ae energy of -2027.926 eV

   | Pseudopotential Report - Date of generation  6-05-2016   |
   | Element: O Ionic charge:  6.00 Level of theory: LDA      |
   | Atomic Solver: Koelling-Harmon                           |
   |               Reference Electronic Structure             |
   |         Orbital         Occupation         Energy        |
   |            2s              2.000           -0.873        |
   |            2p              4.000           -0.338        |
   |                 Pseudopotential Definition               |
   |        Beta     l      e      Rc     scheme   norm       |
   |          1      0   -0.873   1.100     qc      0         |
   |          2      0    0.250   1.100     qc      0         |
   |          3      1   -0.338   1.100     qc      0         |
   |          4      1    0.250   1.100     qc      0         |
   |         loc     2    0.000   1.100     pn      0         |
   | Augmentation charge Rinner = 0.769                       |
   | Partial core correction Rc = 0.769                       |
   | "2|1.1|15|18|20|20:21(qc=7)"                             |
   |      Author: Chris J. Pickard, Cambridge University      |

 Atomic calculation performed for Ca: 1s2 2s2 2p6 3s2 3p6 4s2

 Converged in 44 iterations to an ae energy of -18468.059 eV

   | Pseudopotential Report - Date of generation  6-05-2016   |
   | Element: Ca Ionic charge: 10.00 Level of theory: LDA     |
   | Atomic Solver: Koelling-Harmon                           |
   |               Reference Electronic Structure             |
   |         Orbital         Occupation         Energy        |
   |            3s              2.000           -1.721        |
   |            3p              6.000           -1.028        |
   |            4s              2.000           -0.142        |
   |                 Pseudopotential Definition               |
   |        Beta     l      e      Rc     scheme   norm       |
   |          1      0   -1.721   2.005     qc      0         |
   |          2      0   -0.142   2.005     qc      0         |
   |          3      0    0.250   2.005     qc      0         |
   |          4      1   -1.028   2.005     qc      0         |
   |          5      1    0.250   2.005     qc      0         |
   |          6      2    0.000   2.005     qc      0         |
   |          7      2    0.250   2.005     qc      0         |
   |         loc     3    0.000   2.005     pn      0         |
   | Augmentation charge Rinner = 1.401                       |
   | Partial core correction Rc = 1.401                       |
   | "3|2.0|7|8|9|30U:40:31:32"                               |
   |      Author: Chris J. Pickard, Cambridge University      |

 Pseudo atomic calculation performed for O 2s2 2p4

 Converged in 30 iterations to a total energy of -431.4734 eV

 Pseudo atomic calculation performed for Ca 3s2 3p6 4s2

[...]

 Calculation parallelised over 4 processes.
 Data is distributed by k-point(4-way)

 ************************************ Title ************************************
 MgO

 ***************************** General Parameters ******************************

 output verbosity                               : normal  (1)
 write checkpoint data to                       : cube_100.check
 type of calculation                            : single point energy
 stress calculation                             : on
 density difference calculation                 : off
 electron localisation func (ELF) calculation   : off
 Hirshfeld analysis                             : off
 unlimited duration calculation
 timing information                             : on
 write final potential to formatted file        : off
 write final density to formatted file          : off
 write BibTeX reference list                    : on
 write OTFG pseudopotential files               : on
 checkpoint writing                             : both castep_bin and check files

 output         length unit                     : A
 output           mass unit                     : amu
 output           time unit                     : ps
 output         charge unit                     : e
 output           spin unit                     : hbar/2
 output         energy unit                     : eV
 output          force unit                     : eV/A
 output       velocity unit                     : A/ps
 output       pressure unit                     : GPa
 output     inv_length unit                     : 1/A
 output      frequency unit                     : cm-1
 output force constant unit                     : eV/A**2
 output         volume unit                     : A**3
 output   IR intensity unit                     : (D/A)**2/amu
 output         dipole unit                     : D
 output         efield unit                     : eV/A/e
 output        entropy unit                     : J/mol/K

 wavefunctions paging                           : none
 random number generator seed                   : randomised (143608596)
 data distribution                              : optimal for this architecture
 optimization strategy                          : maximize speed(+++)

 *********************** Exchange-Correlation Parameters ***********************

 using functional                               : Local Density Approximation
 relativistic treatment                         : Koelling-Harmon
 DFT+D: Semi-empirical dispersion correction    : off

 ************************* Pseudopotential Parameters **************************

 pseudopotential representation                 : reciprocal space
 <beta|phi> representation                      : reciprocal space
 spin-orbit coupling                            : off

 **************************** Basis Set Parameters *****************************

 plane wave basis set cut-off                   :   490.0000   eV
 size of standard grid                          :     2.0000
 size of   fine   gmax                          :    22.6812   1/A
 finite basis set correction                    : automatic
 number of sample energies                      :          3
           sample  spacing                      :     5.0000   eV

 **************************** Electronic Parameters ****************************

 number of  electrons                           :  218.0
 net charge of system                           :  0.000
 treating system as non-spin-polarized
 number of bands                                :        131

 ********************* Electronic Minimization Parameters **********************

 Method: Treating system as metallic with density mixing treatment of electrons,
         and number of  SD  steps               :          1
         and number of  CG  steps               :          4

 total energy / atom convergence tol.           : 0.1000E-06   eV
 eigen-energy convergence tolerance             : 0.2477E-07   eV
 max force / atom convergence tol.              : ignored
 convergence tolerance window                   :          3   cycles
 max. number of SCF cycles                      :         60
 number of fixed-spin iterations                :         10
 smearing scheme                                : Gaussian
 smearing width                                 : 0.2000       eV
 Fermi energy convergence tolerance             : 0.2721E-13   eV
 periodic dipole correction                     : NONE

 ************************** Density Mixing Parameters **************************

 density-mixing scheme                          : Pulay
 max. length of mixing history                  :         30
 charge density mixing amplitude                : 0.8000
 cut-off energy for mixing                      :  490.0       eV

 *********************** Population Analysis Parameters ************************

 Population analysis with cutoff                :  3.000       A

                                      Unit Cell
        Real Lattice(A)                      Reciprocal Lattice(1/A)
   6.3000000   0.0000000   0.0000000        0.9973310   0.0000000   0.0000000
   0.0000000   6.3000000   0.0000000        0.0000000   0.9973310   0.0000000
   0.0000000   0.0000000   6.3000000        0.0000000   0.0000000   0.9973310

                       Lattice parameters(A)       Cell Angles
                    a =    6.300000          alpha =   90.000000
                    b =    6.300000          beta  =   90.000000
                    c =    6.300000          gamma =   90.000000

                       Current cell volume =  250.047000       A**3

                                     Cell Contents
                         Total number of ions in cell =   27
                      Total number of species in cell =    2
                        Max number of any one species =   14

            x  Element    Atom        Fractional coordinates of atoms  x
            x            Number           u          v          w      x
            x  O            1         0.000000   0.000000   0.333333   x
            x  O            2         0.000000   0.333333   0.000000   x
            x  O            3         0.000000   0.333333   0.666667   x
            x  O            4         0.000000   0.666667   0.333333   x
            x  O            5         0.333333   0.000000   0.000000   x
            x  O            6         0.333333   0.000000   0.666667   x
            x  O            7         0.333333   0.333333   0.333333   x
            x  O            8         0.333333   0.666667   0.000000   x
            x  O            9         0.333333   0.666667   0.666667   x
            x  O           10         0.666667   0.000000   0.333333   x
            x  O           11         0.666667   0.333333   0.000000   x
            x  O           12         0.666667   0.333333   0.666667   x
            x  O           13         0.666667   0.666667   0.333333   x
            x  Ca           1         0.000000   0.000000   0.000000   x
            x  Ca           2         0.000000   0.000000   0.666667   x
            x  Ca           3         0.000000   0.333333   0.333333   x
            x  Ca           4         0.000000   0.666667   0.000000   x
            x  Ca           5         0.000000   0.666667   0.666667   x
            x  Ca           6         0.333333   0.000000   0.333333   x
            x  Ca           7         0.333333   0.333333   0.000000   x
            x  Ca           8         0.333333   0.333333   0.666667   x
            x  Ca           9         0.333333   0.666667   0.333333   x
            x  Ca          10         0.666667   0.000000   0.000000   x
            x  Ca          11         0.666667   0.000000   0.666667   x
            x  Ca          12         0.666667   0.333333   0.333333   x
            x  Ca          13         0.666667   0.666667   0.000000   x
            x  Ca          14         0.666667   0.666667   0.666667   x

                         No user defined ionic velocities

                                   Details of Species

                               Mass of species in AMU
                                    O   15.9994000
                                    Ca   40.0780000

                          Electric Quadrupole Moment (Barn)
                                    O   -0.0255800 Isotope 17
                                    Ca   -0.0408000 Isotope 43

                          Files used for pseudopotentials:
                                    O 2|1.1|15|18|20|20:21(qc=7)
                                    Ca 3|2.0|7|8|9|30U:40:31:32

                              k-Points For BZ Sampling
                       MP grid size for SCF calculation is  3  3  3
                            with an offset of   0.000  0.000  0.000
                       Number of kpoints used =             4

                               Symmetry and Constraints

                      Maximum deviation from symmetry =  0.00000         ANG

                      Number of symmetry operations   =          48
                      Number of ionic constraints     =           3
                      Point group of crystal =    32: Oh, m-3m, 4/m -3 2/m
                      Space group of crystal =   221: Pm-3m, -P 4 2 3

             Set iprint > 1 for details on symmetry rotations/translations

                         Centre of mass is constrained
             Set iprint > 1 for details of linear ionic constraints

                         Number of cell constraints= 5
                         Cell constraints are:  1 1 1 0 0 0

                         External pressure/stress (GPa)
                          0.00000   0.00000   0.00000
                                    0.00000   0.00000
                                              0.00000

Final energy, E             =  -19744.48611509     eV
Final free energy (E-TS)    =  -19744.71975619     eV
(energies not corrected for finite basis set)

NB est. 0K energy (E-0.5TS)      =  -19744.60293564     eV

Calculating total energy with cut-off of  485.000eV.
------------------------------------------------------------------------ <-- SCF
SCF loop      Energy           Fermi           Energy gain       Timer   <-- SCF
                               energy          per atom          (sec)   <-- SCF
------------------------------------------------------------------------ <-- SCF
Initial  -1.97444861E+004  0.00000000E+000                       206.72  <-- SCF
      1  -1.97450781E+004  1.02610603E+001   2.19265389E-002     217.66  <-- SCF
      2  -1.97450782E+004  1.02610615E+001   4.03091391E-006     230.79  <-- SCF
      3  -1.97450791E+004  1.02729157E+001   3.33598580E-005     244.98  <-- SCF
      4  -1.97451054E+004  1.02247142E+001   9.73622781E-004     259.64  <-- SCF
      5  -1.97450785E+004  1.02698705E+001  -9.97585465E-004     274.21  <-- SCF
      6  -1.97450786E+004  1.02662634E+001   3.68040632E-006     288.71  <-- SCF
      7  -1.97450781E+004  1.02654287E+001  -1.70456414E-005     303.18  <-- SCF
      8  -1.97450781E+004  1.02639516E+001  -2.97278030E-006     316.68  <-- SCF
      9  -1.97450780E+004  1.02651358E+001  -3.15150067E-007     328.85  <-- SCF
     10  -1.97450780E+004  1.02650160E+001   7.06939478E-011     339.05  <-- SCF
     11  -1.97450780E+004  1.02649356E+001  -6.83279348E-009     348.96  <-- SCF
------------------------------------------------------------------------ <-- SCF

[...]

Calculating total energy with cut-off of  490.000eV.
------------------------------------------------------------------------ <-- SCF
SCF loop      Energy           Fermi           Energy gain       Timer   <-- SCF
                               energy          per atom          (sec)   <-- SCF
------------------------------------------------------------------------ <-- SCF
Initial  -1.97448438E+004  0.00000000E+000                       355.65  <-- SCF
      1  -1.97455434E+004  1.02610738E+001   2.59122115E-002     366.74  <-- SCF
      2  -1.97455435E+004  1.02610755E+001   5.05184027E-006     379.80  <-- SCF
      3  -1.97455446E+004  1.02750311E+001   3.95800946E-005     394.24  <-- SCF
      4  -1.97455749E+004  1.02223187E+001   1.12156330E-003     409.06  <-- SCF
      5  -1.97455438E+004  1.02703378E+001  -1.15185827E-003     423.87  <-- SCF
      6  -1.97455442E+004  1.02677710E+001   1.39708013E-005     438.79  <-- SCF
      7  -1.97455433E+004  1.02669104E+001  -3.12222519E-005     453.39  <-- SCF
      8  -1.97455433E+004  1.02647296E+001  -2.15543601E-006     467.55  <-- SCF
      9  -1.97455433E+004  1.02661001E+001  -4.95283975E-007     480.48  <-- SCF
     10  -1.97455433E+004  1.02660875E+001   5.45466252E-009     490.33  <-- SCF
     11  -1.97455433E+004  1.02660005E+001  -8.01683117E-009     499.73  <-- SCF
------------------------------------------------------------------------ <-- SCF

Final energy, E             =  -19745.30904444     eV
Final free energy (E-TS)    =  -19745.54325310     eV
(energies not corrected for finite basis set)

NB est. 0K energy (E-0.5TS)      =  -19745.42614877     eV

 For future reference: finite basis dEtot/dlog(Ecut) =     -40.097875eV
 Total energy corrected for finite basis set =  -19745.545310 eV

 ***************** Symmetrised Forces *****************
 *            Cartesian components (eV/A)             *
 *                   x            y            z      *
 * O         1      1.99621      1.99621     -0.00000 *
 * O         2      1.99621     -0.00000      1.99621 *
 * O         3      1.99621      0.00000     -1.99621 *
 * O         4      1.99621     -1.99621      0.00000 *
 * O         5     -0.00000      1.99621      1.99621 *
 * O         6     -0.00000      1.99621     -1.99621 *
 * O         7      0.00000      0.00000      0.00000 *
 * O         8      0.00000     -1.99621      1.99621 *
 * O         9      0.00000     -1.99621     -1.99621 *
 * O        10     -1.99621      1.99621     -0.00000 *
 * O        11     -1.99621     -0.00000      1.99621 *
 * O        12     -1.99621      0.00000     -1.99621 *
 * O        13     -1.99621     -1.99621      0.00000 *
 * Ca        1      5.20046      5.20046      5.20046 *
 * Ca        2      5.20046      5.20046     -5.20046 *
 * Ca        3      4.17013      0.00000      0.00000 *
 * Ca        4      5.20046     -5.20046      5.20046 *
 * Ca        5      5.20046     -5.20046     -5.20046 *
 * Ca        6      0.00000      4.17013     -0.00000 *
 * Ca        7      0.00000      0.00000      4.17013 *
 * Ca        8     -0.00000      0.00000     -4.17013 *
 * Ca        9      0.00000     -4.17013      0.00000 *
 * Ca       10     -5.20046      5.20046      5.20046 *
 * Ca       11     -5.20046      5.20046     -5.20046 *
 * Ca       12     -4.17013     -0.00000     -0.00000 *
 * Ca       13     -5.20046     -5.20046      5.20046 *
 * Ca       14     -5.20046     -5.20046     -5.20046 *

 *********** Symmetrised Stress Tensor ***********
 *          Cartesian components (GPa)           *
 *             x             y             z     *
 *  x    -93.924801      0.000000      0.000000  *
 *  y      0.000000    -93.924801      0.000000  *
 *  z      0.000000      0.000000    -93.924801  *
 *  Pressure:   93.9248                          *

 Pseudo atomic calculation performed for O 2s2 2p4

[...]

 Pseudo atomic calculation performed for Ca 3s2 3p6 4s2

 Converged in 24 iterations to a total energy of -1001.6116 eV

Charge spilling parameter for spin component 1 = 0.22%

     Atomic Populations (Mulliken)
Species   Ion     s      p      d      f     Total  Charge (e)
  O        1     1.87   4.80   0.00   0.00   6.67    -0.67
  O        2     1.87   4.80   0.00   0.00   6.67    -0.67
  O        3     1.87   4.80   0.00   0.00   6.67    -0.67
  O        4     1.87   4.80   0.00   0.00   6.67    -0.67
  O        5     1.87   4.80   0.00   0.00   6.67    -0.67
  O        6     1.87   4.80   0.00   0.00   6.67    -0.67
  O        7     1.82   4.95   0.00   0.00   6.77    -0.77
  O        8     1.87   4.80   0.00   0.00   6.67    -0.67
  O        9     1.87   4.80   0.00   0.00   6.67    -0.67
  O       10     1.87   4.80   0.00   0.00   6.67    -0.67
  O       11     1.87   4.80   0.00   0.00   6.67    -0.67
  O       12     1.87   4.80   0.00   0.00   6.67    -0.67
  O       13     1.87   4.80   0.00   0.00   6.67    -0.67
  Ca       1     2.14   5.88   1.48   0.00   9.50     0.50
  Ca       2     2.14   5.88   1.48   0.00   9.50     0.50
  Ca       3     2.17   5.94   1.09   0.00   9.20     0.80
  Ca       4     2.14   5.88   1.48   0.00   9.50     0.50
  Ca       5     2.14   5.88   1.48   0.00   9.50     0.50
  Ca       6     2.17   5.94   1.09   0.00   9.20     0.80
  Ca       7     2.17   5.94   1.09   0.00   9.20     0.80
  Ca       8     2.17   5.94   1.09   0.00   9.20     0.80
  Ca       9     2.17   5.94   1.09   0.00   9.20     0.80
  Ca      10     2.14   5.88   1.48   0.00   9.50     0.50
  Ca      11     2.14   5.88   1.48   0.00   9.50     0.50
  Ca      12     2.17   5.94   1.09   0.00   9.20     0.80
  Ca      13     2.14   5.88   1.48   0.00   9.50     0.50
  Ca      14     2.14   5.88   1.48   0.00   9.50     0.50

            Bond              Population      Length (A)
         O 13 -- Ca 14             0.29        2.10000
         O 13 -- Ca 13             0.29        2.10000
         O 13 -- Ca 12             0.15        2.10000
         O 13 -- Ca 9              0.15        2.10000
         O 12 -- Ca 14             0.29        2.10000
         O 12 -- Ca 12             0.15        2.10000
         O 12 -- Ca 11             0.29        2.10000
         O 12 -- Ca 8              0.15        2.10000
         O 11 -- Ca 13             0.29        2.10000
         O 11 -- Ca 12             0.15        2.10000
         O 11 -- Ca 10             0.29        2.10000
         O 11 -- Ca 7              0.15        2.10000
         O 10 -- Ca 12             0.15        2.10000
         O 10 -- Ca 11             0.29        2.10000
         O 10 -- Ca 10             0.29        2.10000
         O 10 -- Ca 6              0.15        2.10000
         O 9  -- Ca 14             0.29        2.10000
         O 9  -- Ca 9              0.15        2.10000
         O 9  -- Ca 8              0.15        2.10000
         O 9  -- Ca 5              0.29        2.10000
         O 8  -- Ca 13             0.29        2.10000
         O 8  -- Ca 9              0.15        2.10000
         O 8  -- Ca 7              0.15        2.10000
         O 8  -- Ca 4              0.29        2.10000
         O 7  -- Ca 12             0.11        2.10000
         O 7  -- Ca 9              0.11        2.10000
         O 7  -- Ca 8              0.11        2.10000
         O 7  -- Ca 7              0.11        2.10000
         O 7  -- Ca 6              0.11        2.10000
         O 7  -- Ca 3              0.11        2.10000
         O 6  -- Ca 11             0.29        2.10000
         O 6  -- Ca 8              0.15        2.10000
         O 6  -- Ca 6              0.15        2.10000
         O 6  -- Ca 2              0.29        2.10000
         O 5  -- Ca 10             0.29        2.10000
         O 5  -- Ca 7              0.15        2.10000
         O 5  -- Ca 6              0.15        2.10000
         O 5  -- Ca 1              0.29        2.10000
         O 4  -- Ca 9              0.15        2.10000
         O 4  -- Ca 5              0.29        2.10000
         O 4  -- Ca 4              0.29        2.10000
         O 4  -- Ca 3              0.15        2.10000
         O 3  -- Ca 8              0.15        2.10000
         O 3  -- Ca 5              0.29        2.10000
         O 3  -- Ca 3              0.15        2.10000
         O 3  -- Ca 2              0.29        2.10000
         O 2  -- Ca 7              0.15        2.10000
         O 2  -- Ca 4              0.29        2.10000
         O 2  -- Ca 3              0.15        2.10000
         O 2  -- Ca 1              0.29        2.10000
         O 1  -- Ca 6              0.15        2.10000
         O 1  -- Ca 3              0.15        2.10000
         O 1  -- Ca 2              0.29        2.10000
         O 1  -- Ca 1              0.29        2.10000
        Ca 13 -- Ca 14            -0.63        2.10000
        Ca 11 -- Ca 14            -0.63        2.10000
        Ca 10 -- Ca 13            -0.63        2.10000
        Ca 10 -- Ca 11            -0.63        2.10000
        Ca 7  -- Ca 8             -0.20        2.10000
        Ca 6  -- Ca 9             -0.20        2.10000
[...]
         O 3  -- O 11             -0.02        2.96985
         O 2  -- Ca 13            -0.04        2.96985
         O 2  -- Ca 12            -0.03        2.96985
         O 2  -- Ca 10            -0.04        2.96985
         O 2  -- Ca 8             -0.03        2.96985
         O 2  -- Ca 5             -0.04        2.96985
         O 2  -- Ca 2             -0.04        2.96985
         O 2  -- O 12             -0.02        2.96985
         O 1  -- Ca 12            -0.03        2.96985
         O 1  -- Ca 11            -0.04        2.96985
         O 1  -- Ca 10            -0.04        2.96985
         O 1  -- Ca 9             -0.03        2.96985
         O 1  -- Ca 5             -0.04        2.96985
         O 1  -- Ca 4             -0.04        2.96985
         O 1  -- O 13             -0.02        2.96985

Writing analysis data to cube_100.castep_bin

Writing model to cube_100.check

 A BibTeX formatted list of references used in this run has been written to
 cube_100.bib

Initialisation time =     16.34 s
Calculation time    =    616.30 s
Finalisation time   =      0.17 s
Total time          =    632.81 s

Overall parallel efficiency rating: Excellent (97%)

Data was distributed by:-
k-point (4-way); efficiency rating: Excellent (97%)